c File: data_files/evolved_graphs/g5269.col
c
c Auto generated graph
c
p edge 100 826
e 1 4
e 1 15
e 1 22
e 1 38
e 1 42
e 1 46
e 1 54
e 1 62
e 1 69
e 1 71
e 1 74
e 1 75
e 1 77
e 1 80
e 1 82
e 1 84
e 1 85
e 1 91
e 1 94
e 1 99
e 2 4
e 2 7
e 2 23
e 2 34
e 2 37
e 2 39
e 2 46
e 2 59
e 2 66
e 2 70
e 2 71
e 2 81
e 2 82
e 2 83
e 2 84
e 2 87
e 2 90
e 2 93
e 2 95
e 3 4
e 3 6
e 3 7
e 3 22
e 3 36
e 3 38
e 3 39
e 3 42
e 3 49
e 3 53
e 3 57
e 3 62
e 3 65
e 3 69
e 3 71
e 3 73
e 3 76
e 3 77
e 3 83
e 3 95
e 3 100
e 4 10
e 4 34
e 4 36
e 4 37
e 4 43
e 4 56
e 4 61
e 4 68
e 4 71
e 4 77
e 4 78
e 4 83
e 4 89
e 4 90
e 5 11
e 5 29
e 5 34
e 5 36
e 5 42
e 5 46
e 5 47
e 5 48
e 5 52
e 5 63
e 5 67
e 5 69
e 5 75
e 5 76
e 5 78
e 5 90
e 5 99
e 6 21
e 6 22
e 6 31
e 6 32
e 6 33
e 6 39
e 6 50
e 6 54
e 6 62
e 6 65
e 6 71
e 6 74
e 6 79
e 6 80
e 6 88
e 6 96
e 7 9
e 7 20
e 7 31
e 7 33
e 7 41
e 7 52
e 7 53
e 7 54
e 7 57
e 7 67
e 7 75
e 7 81
e 7 90
e 7 91
e 7 96
e 8 14
e 8 33
e 8 34
e 8 52
e 8 53
e 8 56
e 8 64
e 8 74
e 8 75
e 8 86
e 8 96
e 8 97
e 8 99
e 9 14
e 9 20
e 9 29
e 9 33
e 9 34
e 9 37
e 9 38
e 9 39
e 9 40
e 9 55
e 9 60
e 9 61
e 9 63
e 9 68
e 9 69
e 9 74
e 9 90
e 9 93
e 9 97
e 10 15
e 10 32
e 10 33
e 10 40
e 10 42
e 10 44
e 10 54
e 10 58
e 10 59
e 10 66
e 10 75
e 10 86
e 10 97
e 10 99
e 10 100
e 11 12
e 11 21
e 11 32
e 11 33
e 11 35
e 11 37
e 11 43
e 11 47
e 11 54
e 11 56
e 11 59
e 11 64
e 11 69
e 11 70
e 11 90
e 11 93
e 12 44
e 12 52
e 12 54
e 12 59
e 12 60
e 12 61
e 12 65
e 12 68
e 12 70
e 12 72
e 12 74
e 12 87
e 12 90
e 12 92
e 12 93
e 12 94
e 12 96
e 12 97
e 13 20
e 13 31
e 13 35
e 13 52
e 13 57
e 13 58
e 13 63
e 13 66
e 13 69
e 13 72
e 13 73
e 13 91
e 13 92
e 13 99
e 13 100
e 14 15
e 14 16
e 14 17
e 14 27
e 14 33
e 14 43
e 14 46
e 14 47
e 14 52
e 14 53
e 14 57
e 14 67
e 14 72
e 14 73
e 14 77
e 14 82
e 14 100
e 15 23
e 15 38
e 15 41
e 15 45
e 15 48
e 15 51
e 15 54
e 15 57
e 15 64
e 15 65
e 15 71
e 15 76
e 15 77
e 15 87
e 15 97
e 16 25
e 16 27
e 16 33
e 16 35
e 16 38
e 16 42
e 16 49
e 16 51
e 16 52
e 16 66
e 16 69
e 16 87
e 16 88
e 16 90
e 16 99
e 16 100
e 17 27
e 17 28
e 17 32
e 17 36
e 17 50
e 17 51
e 17 58
e 17 63
e 17 66
e 17 67
e 17 69
e 17 75
e 17 82
e 17 88
e 17 90
e 17 94
e 17 96
e 18 27
e 18 34
e 18 35
e 18 41
e 18 42
e 18 45
e 18 48
e 18 49
e 18 55
e 18 58
e 18 61
e 18 75
e 18 84
e 18 86
e 18 92
e 18 93
e 18 95
e 19 27
e 19 31
e 19 37
e 19 38
e 19 40
e 19 41
e 19 45
e 19 48
e 19 49
e 19 51
e 19 53
e 19 55
e 19 59
e 19 77
e 19 85
e 19 86
e 19 89
e 19 92
e 20 25
e 20 27
e 20 31
e 20 44
e 20 48
e 20 51
e 20 55
e 20 56
e 20 58
e 20 65
e 20 76
e 20 77
e 20 83
e 20 87
e 20 97
e 21 25
e 21 39
e 21 42
e 21 46
e 21 51
e 21 53
e 21 56
e 21 61
e 21 62
e 21 65
e 21 67
e 21 73
e 21 74
e 21 81
e 21 90
e 22 25
e 22 31
e 22 32
e 22 36
e 22 39
e 22 40
e 22 41
e 22 42
e 22 43
e 22 49
e 22 52
e 22 55
e 22 56
e 22 59
e 22 64
e 22 65
e 22 71
e 22 74
e 22 75
e 22 78
e 22 84
e 22 87
e 23 25
e 23 32
e 23 36
e 23 41
e 23 48
e 23 49
e 23 50
e 23 52
e 23 54
e 23 60
e 23 63
e 23 71
e 23 72
e 23 77
e 23 91
e 23 98
e 24 25
e 24 26
e 24 27
e 24 28
e 24 29
e 24 32
e 24 34
e 24 35
e 24 36
e 24 38
e 24 42
e 24 43
e 24 51
e 24 53
e 24 60
e 24 68
e 24 71
e 24 74
e 24 75
e 24 78
e 24 79
e 24 81
e 25 29
e 25 42
e 25 47
e 25 48
e 25 49
e 25 50
e 25 52
e 25 55
e 25 72
e 25 79
e 25 83
e 25 90
e 25 96
e 25 97
e 26 43
e 26 44
e 26 45
e 26 46
e 26 51
e 26 52
e 26 53
e 26 65
e 26 68
e 26 73
e 26 76
e 26 78
e 26 83
e 26 84
e 26 97
e 26 98
e 27 28
e 27 31
e 27 32
e 27 44
e 27 56
e 27 67
e 27 69
e 27 72
e 27 73
e 27 74
e 27 75
e 27 78
e 27 79
e 27 80
e 27 98
e 28 31
e 28 33
e 28 46
e 28 51
e 28 56
e 28 58
e 28 67
e 28 70
e 28 71
e 28 74
e 28 83
e 28 84
e 29 35
e 29 41
e 29 65
e 29 66
e 29 69
e 29 76
e 29 79
e 29 88
e 31 33
e 31 46
e 31 54
e 31 67
e 31 68
e 31 84
e 31 87
e 32 52
e 32 54
e 32 57
e 32 59
e 32 60
e 32 65
e 32 66
e 32 80
e 32 96
e 33 37
e 33 50
e 33 52
e 33 59
e 33 79
e 34 48
e 34 51
e 34 53
e 34 55
e 34 60
e 34 64
e 34 69
e 34 71
e 34 78
e 34 91
e 34 97
e 34 99
e 35 38
e 35 44
e 35 51
e 35 55
e 35 59
e 35 60
e 35 61
e 35 83
e 35 91
e 36 45
e 36 52
e 36 55
e 36 60
e 36 63
e 36 73
e 36 78
e 36 95
e 36 99
e 37 46
e 37 53
e 37 55
e 37 57
e 37 67
e 37 70
e 37 81
e 37 84
e 37 89
e 37 91
e 38 44
e 38 45
e 38 49
e 38 55
e 38 63
e 38 66
e 38 81
e 38 98
e 39 44
e 39 55
e 39 66
e 39 91
e 39 92
e 39 94
e 39 95
e 39 98
e 40 46
e 40 48
e 40 49
e 40 55
e 40 59
e 40 61
e 40 65
e 40 78
e 40 80
e 40 81
e 40 90
e 40 92
e 40 98
e 41 43
e 41 48
e 41 50
e 41 54
e 41 56
e 41 59
e 41 60
e 41 66
e 41 79
e 41 85
e 41 86
e 42 43
e 42 44
e 42 48
e 42 53
e 42 59
e 42 66
e 42 68
e 42 73
e 42 83
e 42 99
e 43 70
e 43 71
e 43 73
e 43 78
e 43 92
e 43 93
e 44 50
e 44 64
e 44 68
e 44 75
e 44 76
e 44 78
e 44 83
e 44 86
e 44 92
e 45 55
e 45 76
e 45 83
e 45 84
e 45 93
e 45 95
e 46 61
e 46 63
e 46 65
e 46 66
e 46 67
e 46 79
e 46 82
e 46 85
e 46 92
e 46 98
e 46 99
e 47 73
e 47 82
e 47 84
e 47 92
e 47 100
e 48 62
e 48 67
e 48 81
e 48 83
e 48 85
e 48 98
e 49 50
e 49 61
e 49 70
e 49 74
e 49 81
e 50 68
e 50 69
e 50 78
e 50 82
e 50 85
e 50 95
e 50 96
e 51 71
e 51 79
e 51 80
e 51 87
e 51 95
e 51 96
e 52 64
e 52 65
e 52 68
e 52 71
e 52 73
e 52 84
e 52 85
e 52 94
e 53 62
e 53 72
e 53 81
e 53 97
e 54 70
e 54 77
e 54 81
e 54 98
e 54 99
e 54 100
e 55 62
e 55 65
e 55 68
e 55 70
e 55 75
e 55 95
e 56 61
e 56 62
e 56 69
e 56 71
e 56 77
e 56 81
e 56 93
e 56 94
e 56 95
e 56 97
e 56 98
e 57 63
e 57 68
e 57 69
e 57 70
e 57 71
e 57 72
e 57 82
e 57 86
e 57 93
e 57 95
e 58 61
e 58 63
e 58 66
e 58 70
e 58 71
e 58 73
e 58 80
e 59 72
e 59 74
e 60 62
e 60 77
e 60 82
e 60 91
e 60 94
e 61 77
e 61 88
e 61 91
e 61 94
e 61 95
e 62 64
e 62 69
e 62 70
e 62 75
e 62 83
e 62 85
e 62 87
e 63 71
e 63 72
e 63 79
e 63 81
e 63 85
e 63 87
e 63 88
e 64 72
e 64 78
e 64 79
e 64 80
e 64 81
e 64 83
e 64 100
e 65 69
e 65 71
e 65 88
e 65 97
e 66 73
e 66 91
e 66 97
e 66 98
e 67 76
e 67 91
e 67 93
e 67 100
e 68 89
e 68 93
e 68 98
e 69 78
e 69 89
e 69 91
e 69 94
e 70 81
e 71 75
e 71 89
e 72 78
e 72 79
e 72 93
e 73 76
e 73 89
e 73 90
e 73 100
e 74 89
e 74 90
e 74 92
e 74 93
e 74 96
e 74 100
e 75 88
e 75 89
e 75 90
e 75 91
e 75 92
e 76 80
e 76 95
e 77 78
e 77 83
e 77 89
e 77 90
e 77 95
e 78 84
e 78 88
e 78 89
e 78 90
e 78 95
e 78 97
e 79 89
e 79 93
e 79 96
e 79 98
e 80 81
e 80 83
e 80 88
e 80 89
e 80 93
e 80 94
e 80 95
e 81 83
e 81 87
e 81 89
e 81 93
e 81 94
e 82 89
e 82 92
e 82 93
e 82 94
e 82 96
e 83 85
e 84 95
e 85 88
e 85 97
e 85 100
e 86 94
e 86 95
e 86 96
e 86 99
e 86 100
e 87 95
e 87 96
e 87 100
e 88 93
e 88 95
e 88 100
e 89 92
e 90 96
e 91 97
e 93 100
e 94 96
e 95 99
